% Generado automaticamente desde C:/Users/andres/Desktop/SEPTIMO SEMESTRE/ADAII/proyecto_final/Proyecto-Optimizacion-ADA2/BateriaPruebas_2025_2_P2-txt/Prueba22.txt

n = 100;
m = 3;
ct = 50.0;
maxMovs = 75.0;
v = [0.386, 0.7, 0.967];
p = [60, 3, 37];
s = [| 36, 15, 9 | 1, 0, 2 | 20, 1, 16 |];
